p tw 202 501
1 2
1 4
1 5
1 6
1 7
1 9
1 10
2 4
2 5
2 6
2 7
2 9
2 10
3 4
3 11
3 12
3 13
3 14
3 24
4 5
4 11
4 12
4 13
4 14
5 26
6 7
7 29
8 9
8 15
8 16
8 17
8 18
8 31
9 10
9 15
9 16
9 17
9 18
10 33
11 12
12 35
13 14
14 37
15 16
16 39
17 18
18 41
19 20
19 25
19 26
19 28
19 29
19 32
19 33
20 25
20 26
20 28
20 29
20 32
20 33
21 22
21 23
21 24
21 27
21 30
21 31
22 23
22 24
22 27
22 30
22 31
23 24
23 25
23 34
23 35
23 36
23 37
24 49
25 26
25 34
25 35
25 36
25 37
26 51
27 53
28 29
29 55
30 31
30 32
30 38
30 39
30 40
30 41
31 57
32 33
32 38
32 39
32 40
32 41
33 59
34 35
35 63
36 37
37 65
38 39
38 71
39 69
40 41
41 73
42 43
42 50
42 51
42 54
42 55
42 58
42 59
43 50
43 51
43 54
43 55
43 58
43 59
44 45
44 48
44 49
44 52
44 53
44 56
44 57
45 48
45 49
45 52
45 53
45 56
45 57
46 47
46 66
46 67
47 66
47 67
48 49
48 50
48 62
48 63
48 64
48 65
49 84
50 51
50 62
50 63
50 64
50 65
51 86
52 53
53 88
54 55
55 90
56 57
56 58
56 68
56 69
56 72
56 73
57 92
58 59
58 68
58 69
58 72
58 73
59 94
60 61
60 70
60 71
60 74
60 98
61 70
61 71
61 74
61 100
62 63
63 102
64 65
64 66
65 104
66 67
68 69
68 70
69 106
70 71
71 108
72 73
73 110
74 112
75 76
75 85
75 86
75 89
75 90
75 93
75 94
76 85
76 86
76 89
76 90
76 93
76 94
77 78
77 83
77 84
77 87
77 88
77 91
77 92
78 83
78 84
78 87
78 88
78 91
78 92
79 80
79 95
79 96
79 97
79 98
80 95
80 96
80 97
80 98
81 82
81 99
81 100
82 99
82 100
83 84
83 85
83 101
83 102
83 103
83 104
84 122
85 86
85 101
85 102
85 103
85 104
86 124
87 88
88 126
89 90
90 128
91 92
91 93
91 105
91 106
91 109
91 110
92 130
93 94
93 105
93 106
93 109
93 110
94 132
95 134
96 136
97 98
97 99
97 107
97 108
97 111
97 112
98 138
99 100
99 107
99 108
99 111
99 112
100 140
101 102
102 142
103 104
104 144
105 106
105 107
106 146
107 108
108 148
109 110
110 150
111 112
112 152
113 114
113 123
113 124
113 127
113 128
113 131
113 132
114 123
114 124
114 127
114 128
114 131
114 132
115 116
115 121
115 122
115 125
115 126
115 129
115 130
116 121
116 122
116 125
116 126
116 129
116 130
117 118
117 133
117 134
117 135
117 136
117 137
117 138
118 133
118 134
118 135
118 136
118 137
118 138
119 120
119 139
119 140
120 139
120 140
121 122
121 123
121 141
121 142
121 143
121 144
122 170
123 124
123 141
123 142
123 143
123 144
124 172
125 126
126 174
127 128
128 176
129 130
129 131
129 145
129 146
129 149
129 150
130 178
131 132
131 145
131 146
131 149
131 150
132 180
133 134
134 181
135 136
136 182
137 138
137 139
137 147
137 148
137 151
137 152
138 184
139 140
139 147
139 148
139 151
139 152
140 186
141 142
142 188
143 144
144 192
145 146
145 147
146 196
147 148
148 198
149 150
150 200
151 152
152 202
153 154
153 167
153 168
154 167
154 168
155 156
155 165
155 166
156 165
156 166
157 158
157 171
157 172
157 175
157 176
157 179
157 180
158 171
158 172
158 175
158 176
158 179
158 180
159 160
159 169
159 170
159 173
159 174
159 177
159 178
160 169
160 170
160 173
160 174
160 177
160 178
161 162
161 181
161 182
161 183
161 184
162 181
162 182
162 183
162 184
163 164
163 185
163 186
164 185
164 186
165 166
165 167
165 189
165 190
165 193
165 194
167 168
167 189
167 190
167 193
167 194
169 170
169 171
169 187
169 188
169 191
169 192
171 172
171 187
171 188
171 191
171 192
173 174
175 176
177 178
177 179
177 195
177 196
177 199
177 200
179 180
179 195
179 196
179 199
179 200
183 184
183 185
183 197
183 198
183 201
183 202
185 186
185 197
185 198
185 201
185 202
187 188
189 190
191 192
191 193
193 194
195 196
195 197
197 198
199 200
201 202
